(set-logic QF_S)
(declare-fun var_0xINPUT_124066 () String)
(assert (and (= (len var_0xINPUT_124066) 0) (= (len var_0xINPUT_124066) 0) (not (= var_0xINPUT_124066 "Example:")) (not (= var_0xINPUT_124066 "4PH2ujcENG"))))
(check-sat var_0xINPUT_124066)